

param n:= 3;
param m:=4;
param delta := 0.5;

param l := 1 0.2
           2 0.2
           3 0.4;

param R:   1       2      3  := 
        1  5.51   4.80   2.56
        2  -1.24  0.61   0.16
        3  5.46   3.60   -1.64
        4  -1.70  -1.30  0.30 ;

param p := 1 0.25 
		2 0.25
		3 0.25
		4 0.25;


